p cnf 15 26
-15 14 6 0
-15 11 -9 0
-15 -8 -4 0
15 7 -2 0
15 -6 4 0
-15 4 -2 0
14 13 12 0
-14 -12 7 0
14 -10 2 0
13 -12 -10 0
-13 -10 -5 0
13 8 1 0
-12 10 -9 0
12 5 2 0
-12 3 2 0
11 10 -6 0
11 6 -4 0
11 -5 3 0
11 -4 1 0
11 3 -1 0
-11 -2 -1 0
10 6 -3 0
9 6 -4 0
8 -7 -2 0
-8 -6 1 0
-7 6 4 0
